 &control
    calculation = 'scf',
    prefix = 'Si_exc1',
    pseudo_dir='./'
 /
 &system
    ibrav =  1, 
    celldm(1) = 10.348, 
    nat =  8, 
    ntyp = 1,
    ecutwfc = 20,
 /
 &electrons
    mixing_beta = 0.7
 /

ATOMIC_SPECIES
 Si 28.086  Si.pbe-rrkj.UPF

ATOMIC_POSITIONS (alat)
 Si 0.0 0.0 0.0
 Si 0.5 0.5 0.0
 Si 0.0 0.5 0.5
 Si 0.5 0.0 0.5
 Si 0.25 0.25 0.25
 Si 0.75 0.75 0.25
 Si 0.75 0.25 0.75
 Si 0.25 0.75 0.75

K_POINTS (automatic)
  6 6 6 0 0 0
