&inputph
    prefix='O2',
    amass=15.999,
    trans=.true.
 /
3.0 3.0 3.0
