&inputph
    prefix='O2',
    amass=15.999,
    trans=.true.
 /
0.0 0.0 0.0
