&control
    calculation='scf'
    verbosity='high'
    prefix='Li2TiO3'
    pseudo_dir='/mnt/ceph/glen3534/Prep/Li2TiO3/Li2TiO3/Li2TiO3.save'
/
&system
    ibrav=14,
    A=5.099964, B=8.852706, C=9.83459528,
    cosAC=-0.17725651216,
    nat=48,
    ntyp=3,
    nbnd=300,
    ecutwfc=65,
    ecutrho=390,
    occupations='smearing',
    smearing='methfessel-paxton',
    degauss=0.01,
    lda_plus_u=.TRUE.,
    lda_plus_u_kind=1,
    Hubbard_U(2)=2,
    tot_magnetization=0,
    nspin=2
/
&electrons
/
&ions
/
ATOMIC_SPECIES
 Li   6.941  Li.upf
 Ti  47.867  Ti.upf
 O   15.999  O.upf
ATOMIC_POSITIONS {crystal}
 Li  0.73983700  0.57982800  0.99962300
 Li  0.26016300  0.57982800  0.50037700
 Li  0.76016300  0.92017200  0.00037700
 Li  0.23983700  0.92017200  0.49962300
 Li  0.75000000  0.75000000  0.50000000
 Li  0.25000000  0.75000000  0.00000000
 Li  0.50000000  0.58434200  0.25000000
 Li  0.00000000  0.91565800  0.75000000
 Li  0.23983700  0.07982800  0.99962300
 Li  0.76016300  0.07982800  0.50037700
 Li  0.26016300  0.42017200  0.00037700
 Li  0.73983700  0.42017200  0.49962300
 Li  0.25000000  0.25000000  0.50000000
 Li  0.75000000  0.25000000  0.00000000
 Li  0.00000000  0.08434200  0.25000000
 Li  0.50000000  0.41565800  0.75000000
 Ti  0.50000000  0.91741500  0.25000000
 Ti  0.50000000  0.75039400  0.75000000
 Ti  0.00000000  0.74960600  0.25000000
 Ti  0.00000000  0.58258500  0.75000000
 Ti  0.00000000  0.41741500  0.25000000
 Ti  0.00000000  0.25039400  0.75000000
 Ti  0.50000000  0.24960600  0.25000000
 Ti  0.50000000  0.08258500  0.75000000
 O   0.63928650  0.59394650  0.63443600
 O   0.64056300  0.76351400  0.13690300
 O   0.36071350  0.59394650  0.86556400
 O   0.86071350  0.90605350  0.36556400
 O   0.10526100  0.58449700  0.13696200
 O   0.35943700  0.76351400  0.36309700
 O   0.85943700  0.73648600  0.86309700
 O   0.14056300  0.73648600  0.63690300
 O   0.60526100  0.91550300  0.63696200
 O   0.89473900  0.58449700  0.36303800
 O   0.39473900  0.91550300  0.86303800
 O   0.13928650  0.90605350  0.13443600
 O   0.13928650  0.09394650  0.63443600
 O   0.14056300  0.26351400  0.13690300
 O   0.86071350  0.09394650  0.86556400
 O   0.36071350  0.40605350  0.36556400
 O   0.60526100  0.08449700  0.13696200
 O   0.85943700  0.26351400  0.36309700
 O   0.35943700  0.23648600  0.86309700
 O   0.64056300  0.23648600  0.63690300
 O   0.10526100  0.41550300  0.63696200
 O   0.39473900  0.08449700  0.36303800
 O   0.89473900  0.41550300  0.86303800
 O   0.63928650  0.40605350  0.13443600
K_POINTS (automatic)
 1 1 1 0 0 0
