&control
    calculation='vc-relax'
    verbosity='high'
    prefix='LiTiO2'
    pseudo_dir='/mnt/ceph/glen3534/Prep/Li2TiO3/LiTiO2/LiTiO2.save'
    nstep=1000,
/
&system
    ibrav=14,
    A=4.0, B=4.0, C=9.0,
    nat=16,
    ntyp=3,
    nbnd=120,
    ecutwfc=75,
    occupations='smearing',
    smearing='methfessel-paxton',
    degauss=0.01,
    tot_magnetization=0,
    nspin=2
/
&electrons
  electron_maxstep=1000,
  conv_thr=1.D-8,
/
&ions
  ion_dynamics='bfgs',
/
&CELL
  cell_dynamics='bfgs',
  press=0.0,
  press_conv_thr=0.001,
  cell_dofree='ibrav',
/
ATOMIC_SPECIES
 Li   6.941  Li.upf
 Ti  47.867  Ti.upf
 O   15.999  O.upf
ATOMIC_POSITIONS {crystal}
 Li  0.00000000  0.00000000  0.00000000
 Li  0.00000000  0.50000000  0.25000000
 Li  0.50000000  0.50000000  0.50000000
 Li  0.50000000  0.00000000  0.75000000
 Ti  0.50000000  0.50000000  0.00000000
 Ti  0.50000000  0.00000000  0.25000000
 Ti  0.00000000  0.00000000  0.50000000
 Ti  0.00000000  0.50000000  0.75000000
 O   0.50000000  0.50000000  0.25019400
 O   0.00000000  0.50000000  0.49980600
 O   0.00000000  0.50000000  0.00019400
 O   0.00000000  0.00000000  0.24980600
 O   0.00000000  0.00000000  0.75019400
 O   0.50000000  0.00000000  0.99980600
 O   0.50000000  0.00000000  0.50019400
 O   0.50000000  0.50000000  0.74980600
K_POINTS (automatic)
 9 9 5 0 0 0
