&control
    calculation='relax'
    verbosity='high'
    prefix='CO2'
    pseudo_dir='/home/drewglenna/Documents/Espresso/q-e-qe-6.8/pseudo/PAW'
/
&system
    ibrav=1,
    A=10.0, B=10.0, C=10.0,
    nat=3,
    ntyp=2,
    nbnd=20,
    ecutwfc=80,
    occupations='smearing',
    smearing='gaussian',
    degauss=0.01,
    starting_magnetization(1)=+0.1,
    starting_magnetization(1)=-0.1,
    nspin=2,
    vdw_corr='DFT-D',
/
&electrons
/
&ions
/
ATOMIC_SPECIES
 C   12.011  C.upf
 O   15.999  O.upf
ATOMIC_POSITIONS {crystal}
 C 0.5 0.5 0.500
 O 0.5 0.5 0.384
 O 0.5 0.5 0.616
K_POINTS {automatic}
 1 1 1 0 0 0
