 &control
    calculation='vc-relax'
    verbosity='high'
    prefix='Cu'
    pseudo_dir='/mnt/ceph/glen3534/Prep/Adsorption/Cu/Cu.save'
    nstep=1000,
 /
 &system
    ibrav=14,
    A=3.62, B=3.62, C=3.62,
    nat=4,
    ntyp=1,
    ecutwfc=80,
    occupations='smearing',
    smearing='gaussian',
    degauss=0.01,
    tot_magnetization=0,
    nspin=2,
    vdw_corr='DFT-D',
/
&electrons
  electron_maxstep=1000,
  conv_thr=1.D-8,
/
&ions
  ion_dynamics='bfgs',
/
&CELL
  cell_dynamics='bfgs',
  press=0.0,
  press_conv_thr=0.01,
  cell_dofree='ibrav',
/
ATOMIC_SPECIES
 Cu  63.546  Cu.upf
ATOMIC_POSITIONS {crystal}
  Cu  0.00000000  0.00000000  0.00000000
  Cu  0.00000000  0.50000000  0.50000000
  Cu  0.50000000  0.00000000  0.50000000
  Cu  0.50000000  0.50000000  0.00000000
K_POINTS (automatic)
 9 9 9 0 0 0
