&inputph
    prefix='CO2',
    amass(1)=12.011,  
    amass(2)=15.999,
    trans=.true.
 /
5.0 5.0 5.0
