&inputph
    prefix='CO2',
    amass(1)=12.011,  
    amass(2)=15.999,
    trans=.true.
 /
3.0 3.0 3.0
