&dos
    prefix='Ti',
    fildos='Tidos.dat',
    Emin=7.0,
    Emax=16.0,
    DeltaE=0.001,
/
