&control
    calculation='scf'
    verbosity='high'
    prefix='Li2TiO3'
    pseudo_dir='/mnt/ceph/glen3534/Prep/Li2TiO3/Li2TiO3/Li2TiO3.save'
/
&system
    ibrav=14,
    A=5.073, B=8.838, C=9.789,
    cosBC=0.000000139626, cosAC=-0.180570902181, cosAB=0.000000139626,
    nat=48,
    ntyp=3,
    nbnd=300,
    ecutwfc=75,
    occupations='smearing',
    smearing='gaussian',
    degauss=0.01,
    lda_plus_u=.TRUE.,
    lda_plus_u_kind=1,
    Hubbard_U(2)=2,
    tot_magnetization=0,
    nspin=2
/
&electrons
/
&ions
/
ATOMIC_SPECIES
 Li   6.941  Li.upf
 Ti  47.867  Ti.upf
 O   15.999  O.upf
ATOMIC_POSITIONS {crystal}
 Li            0.7404119285        0.5800533203        0.9992949859
 Li            0.2595877685        0.5800533997        0.5007050342
 Li            0.7595881699        0.9199467735        0.0007049748
 Li            0.2404120908        0.9199467083        0.4992950165
 Li            0.7499999978        0.7500000878        0.5000000111
 Li            0.2500000256        0.7500000779        0.0000000098
 Li            0.5000000120        0.5843531759        0.2499999514
 Li            0.0000000260        0.9156467903        0.7500000287
 Li            0.2404118301        0.0800532265        0.9992950252
 Li            0.7595879092        0.0800532917        0.5007049835
 Li            0.2595880715        0.4199466797        0.0007050141
 Li            0.7404122315        0.4199466003        0.4992949658
 Li            0.2500000022        0.2499999122        0.4999999889
 Li            0.7499999744        0.2499999221       -0.0000000098
 Li           -0.0000000260        0.0843532097        0.2499999713
 Li            0.4999999880        0.4156468241        0.7500000486
 Ti            0.5000000012        0.9175392039        0.2499998581
 Ti            0.5000000705        0.7505057051        0.7500001064
 Ti           -0.0000000066        0.7494942903        0.2499998939
 Ti            0.0000000512        0.5824608362        0.7500001613
 Ti           -0.0000000512        0.4175391638        0.2499998387
 Ti            0.0000000066        0.2505057097        0.7500001061
 Ti            0.4999999295        0.2494942949        0.2499998936
 Ti            0.4999999988        0.0824607961        0.7500001419
 O             0.6388760111        0.5945876986        0.6341833946
 O             0.6403015435        0.7641239425        0.1369210533
 O             0.3611240429        0.5945876736        0.8658167823
 O             0.8611239933        0.9054123597        0.3658166025
 O             0.1040991887        0.5844541311        0.1372917655
 O             0.3596984137        0.7641239552        0.3630788147
 O             0.8596984879        0.7358760929        0.8630789610
 O             0.1403015746        0.7358760814        0.6369212173
 O             0.6040991006        0.9155458582        0.6372919010
 O             0.8959008020        0.5844541185        0.3627080793
 O             0.3959009453        0.9155458759        0.8627082461
 O             0.1388759730        0.9054123616        0.1341832600
 O             0.1388760067        0.0945876403        0.6341833975
 O             0.1403015121        0.2641239071        0.1369210390
 O             0.8611240270        0.0945876384        0.8658167400
 O             0.3611239889        0.4054123014        0.3658166054
 O             0.6040990547        0.0844541241        0.1372917539
 O             0.8596984254        0.2641239186        0.3630787827
 O             0.3596984565        0.2358760575        0.8630789467
 O             0.6403015863        0.2358760448        0.6369211853
 O             0.1040991980        0.4155458815        0.6372919207
 O             0.3959008994        0.0844541418        0.3627080990
 O             0.8959008113        0.4155458689        0.8627082345
 O             0.6388759571        0.4054123264        0.1341832177
K_POINTS (automatic)
 3 1 1 0 0 0
