&control
    calculation='scf'
    verbosity='high'
    prefix='Ti'
    pseudo_dir='/mnt/ceph/glen3534/Prep/TiO/Ti/Ti.save'
/
&system
    ibrav=4,
    A=4.600, B=4.600, C=2.836,
    cosab=-0.5,
    nat=3,
    ntyp=1,
    nbnd=40,
    ecutwfc=75,
    occupations='smearing',
    smearing='gaussian',
    degauss=0.01,
    tot_magnetization=0,
    nspin=2,
/
&electrons
/
&ions
/
ATOMIC_SPECIES
 Ti  47.867  Ti.upf
ATOMIC_POSITIONS {crystal}
 Ti            0.0000000044       -0.0000000044       -0.0675492001
 Ti            0.3333368306        0.6666631694        0.2500180457
 Ti            0.6666631649        0.3333368351        0.5675311544
K_POINTS (automatic)
 7 7 11 0 0 0
