&control
    calculation='scf'
    verbosity='high'
    prefix='LiTiO2'
    pseudo_dir='/mnt/ceph/glen3534/Prep/Li2TiO3/LiTiO2/LiTiO2.save'
/
&system
    ibrav=14,
    A=4.073, B=4.073, C=8.512,
    nat=16,
    ntyp=3,
    nbnd=120,
    ecutwfc=75,
    occupations='smearing',
    smearing='methfessel-paxton',
    degauss=0.01,
    tot_magnetization=0,
    nspin=2
/
&electrons
/
&ions
/
ATOMIC_SPECIES
 Li   6.941  Li.upf
 Ti  47.867  Ti.upf
 O   15.999  O.upf
ATOMIC_POSITIONS {crystal}
 Li            0.0000000000        0.0000000000        0.0000000000
 Li            0.0000000000        0.5000000000        0.2500017748
 Li            0.5000000000        0.5000000000        0.5000000000
 Li            0.5000000000        0.0000000000        0.7499982252
 Ti            0.5000000000        0.5000000000        0.0000000000
 Ti            0.5000000000        0.0000000000        0.2499995691
 Ti            0.0000000000        0.0000000000        0.5000000000
 Ti            0.0000000000        0.5000000000        0.7500004309
 O             0.5000000000        0.5000000000        0.2486477324
 O             0.0000000000        0.5000000000        0.5013509738
 O             0.0000000000        0.5000000000       -0.0013516110
 O             0.0000000000        0.0000000000        0.2513503146
 O             0.0000000000        0.0000000000        0.7486496854
 O             0.5000000000        0.0000000000        1.0013516110
 O             0.5000000000        0.0000000000        0.4986490262
 O             0.5000000000        0.5000000000        0.7513522676
K_POINTS (automatic)
 9 9 5 0 0 0
