#=======================================================
# FHI-aims file: CO2Cu111.bridge.in
# Created using the Atomic Simulation Environment (ASE)
# Wed Jun 29 18:48:40 2022
#=======================================================
lattice_vector 5.1053109601668734 0.0000000000000000 0.0000000000000000 
lattice_vector 2.5526554800834367 4.4213289857236360 0.0000000000000000 
lattice_vector 0.0000000000000000 0.0000000000000000 6.2527034153236531 
atom 0.0000000000000000 0.0000000000000000 0.0000000000000000 Cu
atom 2.5526554800834367 0.0000000000000000 0.0000000000000000 Cu
atom 1.2763277400417183 2.2106644928618180 0.0000000000000000 Cu
atom 3.8289832201251550 2.2106644928618180 0.0000000000000000 Cu
atom 1.2763277400417183 0.7368881642872727 2.0842344717745505 Cu
atom 3.8289832201251550 0.7368881642872727 2.0842344717745505 Cu
atom 2.5526554800834367 2.9475526571490906 2.0842344717745505 Cu
atom 5.1053109601668734 2.9475526571490906 2.0842344717745505 Cu
atom -0.0000000000000000 1.4737763285745453 4.1684689435490974 Cu
atom 2.5526554800834367 1.4737763285745453 4.1684689435490974 Cu
atom 1.2763277400417181 3.6844408214363629 4.1684689435490974 Cu
atom 3.8289832201251550 3.6844408214363629 4.1684689435490974 Cu
atom 0.0000000000000000 0.0000000000000000 6.2527034153236478 Cu
atom 2.5526554800834367 0.0000000000000000 6.2527034153236478 Cu
atom 1.2763277400417183 2.2106644928618180 6.2527034153236478 Cu
atom 3.8289832201251550 2.2106644928618180 6.2527034153236478 Cu
atom 1.2763277400417183 0.0000000000000000 8.2527034153236478 O
atom 1.2763277400417183 0.0000000000000000 9.4233934153236483 C
atom 1.2763277400417183 0.0000000000000000 10.5940834153236487 O
