&control
    calculation='scf'
    verbosity='high'
    prefix='CO2Cuontop'
    pseudo_dir='/mnt/ceph/glen3534/Prep/Adsorption/CO2Cu/CO2Cu.save'
/
&system
    ibrav=14,
    A=5.10531, B=5.10531, C=26.25270,
    cosAB=0.5,
    nat=19,
    ntyp=3,
    ecutwfc=80,
    occupations='smearing',
    smearing='gaussian',
    degauss=0.01,
    tot_magnetization=0,
    nspin=2,
    vdw_corr='DFT-D',
/
&electrons
/
&ions
/
ATOMIC_SPECIES
 Cu  63.546  Cu.upf
 C   12.011  C.upf
 O   15.999  O.upf
ATOMIC_POSITIONS {Angstrom}
 Cu            0.0000000000        0.0000000000        0.0000000000
 Cu            2.5526554801        0.0000000000        0.0000000000
 Cu            1.2763277400        2.2106644929        0.0000000000
 Cu            3.8289832201        2.2106644929        0.0000000000
 Cu            1.2763277400        0.7368881643        2.0842344718
 Cu            3.8289832201        0.7368881643        2.0842344718
 Cu            2.5526554801        2.9475526571        2.0842344718
 Cu            5.1053109602        2.9475526571        2.0842344718
 Cu            0.0000000000        1.4758964290        4.1122904739
 Cu            2.5526554801        1.4717557757        4.1242111767
 Cu            1.2726064909        3.6837409937        4.1160828174
 Cu            3.8327044693        3.6837409937        4.1160828174
 Cu           -0.0000000000        0.0002617929        6.1534682233
 Cu            2.5526554801       -0.0007419233        6.2046202654
 Cu            1.2753978940        2.2106615085        6.1876452839
 Cu            3.8299130661        2.2106615085        6.1876452839
 O            -1.1703224245       -0.0000851129        9.3223460157
 C            -0.0000000000       -0.0000269968        9.3189115903
 O             1.1703224245       -0.0000851129        9.3223460157
K_POINTS (automatic)
 4 4 1 0 0 0
