&control
    calculation='scf'
    verbosity='high'
    prefix='CO2Cufcc'
    pseudo_dir='/mnt/ceph/glen3534/Prep/Adsorption/CO2Cu/CO2Cu.save'
/
&system
    ibrav=14,
    A=5.10531, B=5.10531, C=26.25270,
    cosAB=0.5,
    nat=19,
    ntyp=3,
    ecutwfc=80,
    occupations='smearing',
    smearing='gaussian',
    degauss=0.01,
    vdw_corr='DFT-D',
/
&electrons
/
&ions
/
ATOMIC_SPECIES
 Cu  63.546  Cu.upf
 C   12.011  C.upf
 O   15.999  O.upf
ATOMIC_POSITIONS {Angstrom}
 Cu            0.0000000000        0.0000000000        0.0000000000
 Cu            2.5526554801        0.0000000000        0.0000000000
 Cu            1.2763277400        2.2106644929        0.0000000000
 Cu            3.8289832201        2.2106644929        0.0000000000
 Cu            1.2763277400        0.7368881643        2.0842344718
 Cu            3.8289832201        0.7368881643        2.0842344718
 Cu            2.5526554801        2.9475526571        2.0842344718
 Cu            5.1053109602        2.9475526571        2.0842344718
 Cu           -0.0021003684        1.4733480725        4.1181929484
 Cu            2.5547558485        1.4733480725        4.1181929484
 Cu            1.2763277400        3.6862529136        4.1132860886
 Cu            3.8289832201        3.6839330852        4.1178031262
 Cu           -0.0000518875       -0.0007221628        6.1858282390
 Cu            2.5527073676       -0.0007221628        6.1858282390
 Cu            1.2763277400        2.2138760287        6.1728295151
 Cu            3.8289832201        2.2148158135        6.1975736740
 O             0.1061164756        0.7345465405        9.2744555283
 C             1.2763277400        0.7350492446        9.2683872531
 O             2.4465390045        0.7345465405        9.2744555283
K_POINTS (automatic)
 4 4 1 0 0 0
