&control
    calculation='scf'
    verbosity='high'
    prefix='CO2Cubridge'
    pseudo_dir='/mnt/ceph/glen3534/Prep/Adsorption/CO2Cu/CO2Cu.save'
/
&system
    ibrav=14,
    A=5.10531, B=5.10531, C=26.25270,
    cosAB=0.5,
    nat=19,
    ntyp=3,
    ecutwfc=80,
    occupations='smearing',
    smearing='gaussian',
    degauss=0.01,
    tot_magnetization=0,
    nspin=2,
    vdw_corr='DFT-D',
/
&electrons
/
&ions
/
ATOMIC_SPECIES
 Cu  63.546  Cu.upf
 C   12.011  C.upf
 O   15.999  O.upf
ATOMIC_POSITIONS {Angstrom}
 Cu            0.0000000000        0.0000000000        0.0000000000
 Cu            2.5526554801        0.0000000000        0.0000000000
 Cu            1.2763277400        2.2106644929        0.0000000000
 Cu            3.8289832201        2.2106644929        0.0000000000
 Cu            1.2763277400        0.7368881643        2.0842344718
 Cu            3.8289832201        0.7368881643        2.0842344718
 Cu            2.5526554801        2.9475526571        2.0842344718
 Cu            5.1053109602        2.9475526571        2.0842344718
 Cu           -0.0006357036        1.4742620877        4.1212637913
 Cu            2.5532911836        1.4742620877        4.1212637913
 Cu            1.2763277400        3.6833418412        4.1194244682
 Cu            3.8289832201        3.6835378066        4.1184784627
 Cu           -0.0006699921        0.0001831314        6.1811897919
 Cu            2.5533254722        0.0001831314        6.1811897919
 Cu            1.2763277400        2.2079948312        6.1911421646
 Cu            3.8289832201        2.2137571429        6.1902030596
 O             0.1060118229       -0.0001074832        9.2798982778
 C             1.2763277400       -0.0001568740        9.2737324402
 O             2.4466436572       -0.0001074832        9.2798982778
K_POINTS (automatic)
 4 4 1 0 0 0
