&inputph
    prefix='Cuslab',
    amass(1)=63.546,  
    trans=.true.,
    ldisp=.true.,
    nq1=4,
    nq2=4,
    nq3=1,
 /
