 &control
    calculation='scf'
    verbosity='high'
    prefix='O2'
    pseudo_dir='/home/drewglenna/Documents/Espresso/q-e-qe-6.8/pseudo/PAW'
 /
 &system
    ibrav=1,
    A=10.0, B=10.0, C=10.0,
    nat=2,
    ntyp=1,
    nbnd=16,
    ecutwfc=75,
    occupations='smearing'
    smearing='gaussian'
    degauss=0.01
    starting_magnetization(1)=+0.1,
    starting_magnetization(1)=-0.1,
    nspin=2,
/
&electrons
/
&ions
/
ATOMIC_SPECIES
 O   15.999  O.upf
ATOMIC_POSITIONS {crystal}
 O             0.5000000000        0.5000000000        0.4990987386
 O             0.5000000000        0.5000000000        0.6209012614
K_POINTS {automatic}
 3 3 3 0 0 0
