 &control
    calculation='relax'
    verbosity='high'
    prefix='CO2Cuontop'
    pseudo_dir='/mnt/ceph/glen3534/Prep/Adsorption/CO2Cu/CO2Cu.save'
 /
 &system
    ibrav=14,
    A=5.10531, B=5.10531, C=26.25270,
    cosAB=0.5,
    nat=19,
    ntyp=3,
    ecutwfc=80,
    occupations='smearing',
    smearing='gaussian',
    degauss=0.01,
    tot_magnetization=0,
    nspin=2,
    vdw_corr='DFT-D',
/
&electrons
/
&ions
/
ATOMIC_SPECIES
 Cu  63.546  Cu.upf
 C   12.011  C.upf
 O   15.999  O.upf
ATOMIC_POSITIONS {Angstrom}
 Cu  0.0000000000000000 0.0000000000000000 0.0000000000000000 0 0 0
 Cu  2.5526554800834367 0.0000000000000000 0.0000000000000000 0 0 0
 Cu  1.2763277400417183 2.2106644928618180 0.0000000000000000 0 0 0
 Cu  3.8289832201251550 2.2106644928618180 0.0000000000000000 0 0 0
 Cu  1.2763277400417183 0.7368881642872727 2.0842344717745505 0 0 0
 Cu  3.8289832201251550 0.7368881642872727 2.0842344717745505 0 0 0
 Cu  2.5526554800834367 2.9475526571490906 2.0842344717745505 0 0 0
 Cu  5.1053109601668734 2.9475526571490906 2.0842344717745505 0 0 0
 Cu -0.0000000000000000 1.4737763285745453 4.1684689435490974
 Cu  2.5526554800834367 1.4737763285745453 4.1684689435490974
 Cu  1.2763277400417181 3.6844408214363629 4.1684689435490974
 Cu  3.8289832201251550 3.6844408214363629 4.1684689435490974
 Cu  0.0000000000000000 0.0000000000000000 6.2527034153236478
 Cu  2.5526554800834367 0.0000000000000000 6.2527034153236478
 Cu  1.2763277400417183 2.2106644928618180 6.2527034153236478
 Cu  3.8289832201251550 2.2106644928618180 6.2527034153236478
 O   0.0000000000000000 0.0000000000000000 8.2527034153236478
 C   0.0000000000000000 0.0000000000000000 9.4233934153236483
 O   0.0000000000000000 0.0000000000000000 10.5940834153236487
K_POINTS (automatic)
 11 11 1 0 0 0
